% demand
num_movements = 28;
loading_factor = [1600, 1150, 1750, 1800, 1500, 800, 1750, 1700, 1850, 900, 1400, 900, 1000, 800, 1300, 1450, 1450, 1350, 1150, 1950, 1800, 1400, 1550, 1950, 1550, 850, 2000, 1550];
pickup_time = [0, 0, 0, 0, 1, 1, 3, 4, 4, 4, 5, 5, 5, 5, 5, 5, 6, 7, 7, 8, 9, 9, 11, 11, 11, 12, 12, 13];
delivery_time = [4, 4, 3, 1, 4, 5, 5, 5, 5, 5, 7, 8, 7, 7, 6, 7, 8, 10, 8, 14, 10, 10, 12, 12, 12, 14, 14, 14];

% transporter definition
total_capacity = 7000;
num_decks = 3;
capacity = [3000, 1000, 3000];

% ways out of decks
num_ways_out = 1;
paths_out = array3d(decks, ways_out, decks, [
% ways out of deck d1
2, 3, 0, 

% ways out of deck d2
3, 0, 0, 

% ways out of deck d3
0, 0, 0,	

]);

